data/solutions/planning/wellformed/moderate/weighting/wellformed_moderate_instance26_cplex.sol
Elapsed time: 0.89
Nodes explored: 4406
Nodes left: 0
Relative gap: 0.0
Upper bound: 7317.0
Lower bound: 7317
C[0]=488.0
C[1]=488.0
C[2]=487.0
C[3]=487.0
y[0]=1
y[1]=2
y[2]=3
y[3]=0
y[4]=3
y[5]=3
y[6]=3
y[7]=1
y[8]=1
y[9]=2
y[10]=3
y[11]=0
y[12]=2
y[13]=2
y[14]=2
y[15]=2
y[16]=0
y[17]=0
y[18]=1
y[19]=0
