data/solutions/planning/wellformed/moderate/weighting/wellformed_moderate_instance26_cplex.log

Log started (V12.6.3.0) Fri Mar  2 12:42:26 2018

New value for default parallel thread count: 1

Problem '/tmp/tmpIpMxoc.pyomo.lp' read.
Read time = 0.00 sec. (0.01 ticks)

Problem name         : /tmp/tmpIpMxoc.pyomo.lp
Objective sense      : Minimize
Variables            :      85  [Nneg: 5,  Binary: 80]
Objective nonzeros   :       4
Linear constraints   :      28  [Less: 3,  Equal: 25]
  Nonzeros           :     171
  RHS nonzeros       :      21

Variables            : Min LB: 0.000000         Max UB: 1.000000       
Objective nonzeros   : Min   : 1.000000         Max   : 8.000000       
Linear constraints   :
  Nonzeros           : Min   : 1.000000         Max   : 167.0000       
  RHS nonzeros       : Min   : 1.000000         Max   : 1.000000       
Found incumbent of value 15600.000000 after 0.00 sec. (0.01 ticks)
Tried aggregator 2 times.
MIP Presolve eliminated 1 rows and 1 columns.
Aggregator did 2 substitutions.
Reduced MIP has 25 rows, 82 columns, and 166 nonzeros.
Reduced MIP has 80 binaries, 0 generals, 0 SOSs, and 0 indicators.
Presolve time = 0.00 sec. (0.19 ticks)
Probing fixed 0 vars, tightened 7 bounds.
Probing time = 0.00 sec. (0.10 ticks)
Tried aggregator 1 time.
Reduced MIP has 25 rows, 82 columns, and 166 nonzeros.
Reduced MIP has 80 binaries, 2 generals, 0 SOSs, and 0 indicators.
Presolve time = 0.00 sec. (0.10 ticks)
Probing time = 0.00 sec. (0.06 ticks)
Clique table members: 20.
MIP emphasis: balance optimality and feasibility.
MIP search method: dynamic search.
Parallel mode: none, using 1 thread.
Root relaxation solution time = 0.00 sec. (0.10 ticks)

        Nodes                                         Cuts/
   Node  Left     Objective  IInf  Best Integer    Best Bound    ItCnt     Gap

*     0+    0                        15600.0000        0.0000           100.00%
      0     0     7312.5000     8    15600.0000     7312.5000       20   53.12%
*     0+    0                         8279.0000     7312.5000            11.67%
      0     0     7312.5000     8     8279.0000       Cuts: 9       28   11.67%
*     0+    0                         8001.0000     7312.5000             8.61%
      0     0     7312.5000    10     8001.0000       Cuts: 5       32    8.61%
*     0+    0                         7791.0000     7312.5000             6.14%
*     0+    0                         7725.0000     7312.5000             5.34%
      0     2     7312.5000    10     7725.0000     7312.5000       32    5.34%
Elapsed time = 0.01 sec. (2.27 ticks, tree = 0.01 MB, solutions = 5)
*    10+   10                         7439.0000     7312.5000             1.70%
*    45    33      integral     0     7431.0000     7312.5000      135    1.59%
*    90+   58                         7420.0000     7312.5000             1.45%
*   120+   83                         7368.0000     7312.5000             0.75%
*   260   142      integral     0     7362.0000     7312.5000      574    0.67%
*   547   221      integral     0     7347.0000     7312.5000     1221    0.47%
*   562   207      integral     0     7335.0000     7312.5000     1257    0.31%
*  1506+  290                         7327.0000     7312.5000             0.20%
*  2906+  191                         7324.0000     7317.0000             0.10%
   3230   246     7317.0000     5     7324.0000     7317.0000     4897    0.10%
   3231   247     7317.0000     5     7324.0000     7317.0000     4898    0.10%
   3232   248     7317.0000     5     7324.0000     7317.0000     4899    0.10%
   3233   249     7317.0000     6     7324.0000     7317.0000     4901    0.10%
   3234   250     7317.0000     6     7324.0000     7317.0000     4902    0.10%
   3235   251     7317.0000     6     7324.0000     7317.0000     4903    0.10%
   3236   252     7317.0000     6     7324.0000     7317.0000     4905    0.10%
   3237   251    infeasible           7324.0000     7317.0000     4905    0.10%
   3238   252     7317.0000     6     7324.0000     7317.0000     4906    0.10%
*  4106+  353                         7321.0000     7317.0000             0.05%
*  4406+    1                         7317.0000     7317.0000             0.00%

Mixed integer rounding cuts applied:  1

Root node processing (before b&c):
  Real time             =    0.01 sec. (2.28 ticks)
Sequential b&c:
  Real time             =    0.87 sec. (381.90 ticks)
                          ------------
Total (root+branch&cut) =    0.88 sec. (384.18 ticks)

Solution pool: 16 solutions saved.

MIP - Integer optimal solution:  Objective =  7.3170000000e+03
Solution time =    0.88 sec.  Iterations = 6029  Nodes = 4406
Deterministic time = 384.18 ticks  (436.27 ticks/sec)


Incumbent solution written to file '/tmp/tmpHbO_Rj.cplex.sol'.
